NAME : tsp30_18.166.tour
COMMENT : Length = 166
COMMENT : Found by LKH [Keld Helsgaun]
TYPE : TOUR
DIMENSION : 30
TOUR_SECTION
1
7
24
27
18
6
20
29
13
30
21
15
4
23
9
25
26
14
22
5
17
3
12
10
2
19
16
11
8
28
-1
EOF
